experiments/eusolverbv/7/DirectTrainGenes/001000010001110101000000001010000111001010000/270_.sl

(set-logic BV)

(define-fun shr1 ((x (BitVec 64))) (BitVec 64) (bvlshr x #x0000000000000001))
(define-fun shr4 ((x (BitVec 64))) (BitVec 64) (bvlshr x #x0000000000000004))
(define-fun shr16 ((x (BitVec 64))) (BitVec 64) (bvlshr x #x0000000000000010))
(define-fun shl1 ((x (BitVec 64))) (BitVec 64) (bvshl x #x0000000000000001))
(define-fun if0 ((x (BitVec 64)) (y (BitVec 64)) (z (BitVec 64))) (BitVec 64) (ite (= x #x0000000000000001) y z))
(define-fun func23  ((A (BitVec 64)) (B (BitVec 64)) (C (BitVec 64)) (D (BitVec 64)) ) (BitVec 64) (bvand (bvlshr (bvlshr C  D ) B ) A ))
(define-fun func24  ((A (BitVec 64)) (B (BitVec 64)) (C (BitVec 64)) ) (BitVec 64) (bvand (bvlshr B  C ) A ))
(define-fun func25  ((A (BitVec 64)) (B (BitVec 64)) ) (BitVec 64) (bvand (bvlshr B  #x0000000000000001 ) A ))
(define-fun func26  ((A (BitVec 64)) (B (BitVec 64)) ) (BitVec 64) (bvand (bvlshr B  #x0000000000000010 ) A ))
(define-fun func27  ((A (BitVec 64)) (B (BitVec 64)) ) (BitVec 64) (bvand (bvlshr B  #x0000000000000004 ) A ))
(define-fun func28  ((A (BitVec 64)) (B (BitVec 64)) ) (BitVec 64) (bvand (bvlshr A  B ) #x0000000000000001 ))
(define-fun func29  ((A (BitVec 64)) ) (BitVec 64) (bvand A  #x0000000000000001 ))
(define-fun func30  ((A (BitVec 64)) (B (BitVec 64)) (C (BitVec 64)) (D (BitVec 64)) ) (BitVec 64) (bvlshr (bvlshr (bvlshr C  D ) B ) A ))
(define-fun func31  ((A (BitVec 64)) (B (BitVec 64)) (C (BitVec 64)) ) (BitVec 64) (bvlshr (bvlshr (bvlshr C  #x0000000000000010 ) B ) A ))
(define-fun func32  ((A (BitVec 64)) (B (BitVec 64)) (C (BitVec 64)) ) (BitVec 64) (bvlshr (bvlshr B  C ) A ))
(define-fun func33  ((A (BitVec 64)) (B (BitVec 64)) ) (BitVec 64) (bvlshr (bvlshr B  #x0000000000000010 ) A ))
(define-fun func34  ((A (BitVec 64)) (B (BitVec 64)) ) (BitVec 64) (bvlshr (bvlshr B  #x0000000000000004 ) A ))
(define-fun func35  ((A (BitVec 64)) (B (BitVec 64)) ) (BitVec 64) (bvlshr (bvlshr B  #x0000000000000001 ) A ))
(define-fun func36  ((A (BitVec 64)) (B (BitVec 64)) ) (BitVec 64) (bvlshr (bvlshr A  B ) #x0000000000000001 ))
(define-fun func37  ((A (BitVec 64)) (B (BitVec 64)) ) (BitVec 64) (bvlshr (bvlshr A  B ) #x0000000000000004 ))
(define-fun func38  ((A (BitVec 64)) (B (BitVec 64)) ) (BitVec 64) (bvlshr A  B ))
(define-fun func39  ((A (BitVec 64)) (B (BitVec 64)) (C (BitVec 64)) ) (BitVec 64) (bvlshr (bvshl B  C ) A ))
(define-fun func40  ((A (BitVec 64)) (B (BitVec 64)) ) (BitVec 64) (bvlshr (bvshl B  #x0000000000000001 ) A ))
(define-fun func41  ((A (BitVec 64)) (B (BitVec 64)) ) (BitVec 64) (bvlshr (bvshl A  B ) #x0000000000000004 ))
(define-fun func42  ((A (BitVec 64)) (B (BitVec 64)) (C (BitVec 64)) ) (BitVec 64) (bvlshr (bvadd B  C ) A ))
(define-fun func43  ((A (BitVec 64)) (B (BitVec 64)) ) (BitVec 64) (bvlshr (bvnot B ) A ))
(define-fun func44  ((A (BitVec 64)) ) (BitVec 64) (bvlshr (bvnot A ) #x0000000000000010 ))
(define-fun func45  ((A (BitVec 64)) (B (BitVec 64)) (C (BitVec 64)) ) (BitVec 64) (bvor (bvlshr B  C ) A ))
(define-fun func46  ((A (BitVec 64)) ) (BitVec 64) (bvor A  #x0000000000000001 ))
(define-fun func47  ((A (BitVec 64)) (B (BitVec 64)) (C (BitVec 64)) ) (BitVec 64) (bvshl (bvlshr B  C ) A ))
(define-fun func48  ((A (BitVec 64)) (B (BitVec 64)) ) (BitVec 64) (bvshl (bvlshr B  #x0000000000000001 ) A ))
(define-fun func49  ((A (BitVec 64)) (B (BitVec 64)) ) (BitVec 64) (bvshl (bvlshr A  B ) #x0000000000000001 ))
(define-fun func51  ((A (BitVec 64)) (B (BitVec 64)) (C (BitVec 64)) ) (BitVec 64) (bvshl (bvshl B  C ) A ))
(define-fun func52  ((A (BitVec 64)) (B (BitVec 64)) ) (BitVec 64) (bvshl (bvshl B  #x0000000000000001 ) A ))
(define-fun func53  ((A (BitVec 64)) (B (BitVec 64)) ) (BitVec 64) (bvshl (bvshl A  B ) #x0000000000000001 ))
(define-fun func54  ((A (BitVec 64)) (B (BitVec 64)) (C (BitVec 64)) ) (BitVec 64) (bvadd (bvlshr B  C ) A ))
(define-fun func55  ((A (BitVec 64)) ) (BitVec 64) (bvadd A  #x0000000000000001 ))
(define-fun func56  ((A (BitVec 64)) (B (BitVec 64)) (C (BitVec 64)) ) (BitVec 64) (bvadd (bvshl B  C ) A ))
(define-fun func57  ((A (BitVec 64)) (B (BitVec 64)) ) (BitVec 64) (bvadd (bvshl B  #x0000000000000001 ) A ))
(define-fun func58  ((A (BitVec 64)) ) (BitVec 64) (bvnot (bvshl A  #x0000000000000001 )))
(synth-fun f ( (x (BitVec 64))) (BitVec 64)
(
(Start (BitVec 64) (
   #x0000000000000000
   #x0000000000000001
   x
   (func25 Start Start)
   (func30 Start Start Start Start)
   (func34 Start Start)
   (func35 Start Start)
   (func36 Start Start)
   (func38 Start Start)
   (func40 Start Start)
   (func49 Start Start)
   (func52 Start Start)
   (func57 Start Start)
   (func58 Start)
   (shl1 Start)
   (shr1 Start)
   (shr16 Start)
   (bvor Start Start)
   (bvxor Start Start)
   (bvadd Start Start)
   (if0 Start Start Start)
))
))
(constraint (= (f #x4ec5e368dfb73d44) #x4ec5e368dfb73d44))
(constraint (= (f #x9c1bddc5906a6c66) #x9c1bddc5906a6c66))
(constraint (= (f #x4de1caaff607a584) #x4de1caaff607a584))
(constraint (= (f #xbf4fa282773701c4) #xbf4fa282773701c4))
(constraint (= (f #xb88c8b599afcfba4) #xb88c8b599afcfba4))
(constraint (= (f #x5599a70049545e59) #x5599a70049545e59))
(constraint (= (f #xc773d5520d96a0fa) #xc773d5520d96a0fa))
(constraint (= (f #xbc42285d9d040fbf) #xbc42285d9d040fbf))
(constraint (= (f #xe0df9801f72abdbe) #xe0df9801f72abdbe))
(constraint (= (f #x04663973cce85f5a) #x04663973cce85f5a))
(constraint (= (f #x8c376ece5546e52b) #x8c376ece5546e52b))
(constraint (= (f #x05d9a3d4f7ba750b) #x05d9a3d4f7ba750b))
(constraint (= (f #x41084e36325d70ae) #x41084e36325d70af))
(constraint (= (f #xa9844285ffcb49ce) #xa9844285ffcb49cf))
(constraint (= (f #x60fdbbb5ae98d96a) #x60fdbbb5ae98d96b))
(constraint (= (f #x793609ec37276723) #x0000000000000000))
(constraint (= (f #x5742554c7e5fc365) #x0000000000000000))
(constraint (= (f #x00fac826078dc661) #x0000000000000000))
(constraint (= (f #xa4a2b78db4993f41) #x0000000000000000))
(constraint (= (f #x70588ea7950b59a1) #x0000000000000000))
(constraint (= (f #x800000000000001f) #x800000000000001f))
(constraint (= (f #x000000000000001b) #x000000000000001b))
(constraint (= (f #x000000000000001c) #x000000000000001c))
(constraint (= (f #x8000000000000019) #x8000000000000019))
(constraint (= (f #xef546a62247612f2) #xef546a62247612f3))
(constraint (= (f #xf2b6cdd594107890) #xf2b6cdd594107891))
(constraint (= (f #x7518b2dc417d0012) #x7518b2dc417d0013))
(constraint (= (f #x8c02d5cd651666f6) #x8c02d5cd651666f7))
(constraint (= (f #x83c4843bdbf1a574) #x83c4843bdbf1a575))
(constraint (= (f #xfffffffffffffffe) #xffffffffffffffff))
(constraint (= (f #x0000000000000010) #x0000000000000001))
(constraint (= (f #x8000000000000012) #x0000000000000001))
(constraint (= (f #x8000000000000014) #x0000000000000001))
(constraint (= (f #x8000000000000016) #x0000000000000001))
(constraint (= (f #x442290c09e7371b7) #x442290c09e7371b7))
(constraint (= (f #x8d4779f3613cf937) #x8d4779f3613cf937))
(constraint (= (f #xf5af20be093da337) #xf5af20be093da337))
(constraint (= (f #x2d1a81db854b3857) #x2d1a81db854b3857))
(constraint (= (f #xd6d5499e2396bf71) #xd6d5499e2396bf71))
(constraint (= (f #x8000000000000013) #x0000000000000001))
(constraint (= (f #x0000000000000015) #x0000000000000001))
(constraint (= (f #x8000000000000017) #x0000000000000001))
(constraint (= (f #x0000000000000017) #x0000000000000001))
(constraint (= (f #x8000000000000011) #x0000000000000001))
(constraint (= (f #xff1c0c014a161864) #xff1c0c014a161864))
(constraint (= (f #x9325171c724391b8) #x9325171c724391b8))
(constraint (= (f #xe2f309a4963ca5f0) #xe2f309a4963ca5f1))
(constraint (= (f #x6a734022199d62a3) #x0000000000000000))
(constraint (= (f #xc2a4bd9cdd375287) #x0000000000000000))
(constraint (= (f #x4091a82a1bcd306f) #x4091a82a1bcd306f))
(constraint (= (f #xb0df23e52cd04c3c) #xb0df23e52cd04c3c))
(constraint (= (f #xd1aaf49f291d157b) #xd1aaf49f291d157b))
(constraint (= (f #x369b77b43754cc64) #x369b77b43754cc64))
(constraint (= (f #x288b46dab6777b8d) #x288b46dab6777b8d))
(constraint (= (f #x0000000000000012) #x0000000000000001))
(constraint (= (f #xfffffffffffffffe) #xffffffffffffffff))
(constraint (= (f #x8000000000000013) #x0000000000000001))
(constraint (= (f #x8000000000000012) #x0000000000000001))
(constraint (= (f #xcf97563f90b9a8b7) #xcf97563f90b9a8b7))
(constraint (= (f #xf9fe8438d0e4c5a4) #xf9fe8438d0e4c5a4))
(constraint (= (f #xdecc8edea993974a) #xdecc8edea993974b))
(constraint (= (f #x800000000000001a) #x800000000000001a))
(constraint (= (f #xaaf04bbdd9b9b59c) #xaaf04bbdd9b9b59c))
(constraint (= (f #x000000000000001d) #x000000000000001d))
(constraint (= (f #xec2900190a491810) #xec2900190a491811))
(constraint (= (f #xde754ec03a081be0) #xde754ec03a081be0))
(constraint (= (f #xe3a4ebdf9246c12c) #xe3a4ebdf9246c12d))
(constraint (= (f #xd7e22aebc5bf255c) #xd7e22aebc5bf255c))
(constraint (= (f #x95cd05c31fe09633) #x95cd05c31fe09633))
(constraint (= (f #xd9667995b642ee2a) #xd9667995b642ee2b))
(constraint (= (f #x52713c16a343cf90) #x52713c16a343cf91))
(constraint (= (f #xcc95be0b1bb96765) #x0000000000000000))
(constraint (= (f #x4897fbfb6ede502c) #x4897fbfb6ede502d))
(constraint (= (f #xa491c0f953739f12) #xa491c0f953739f13))
(constraint (= (f #x2a6769776fb07470) #x2a6769776fb07471))
(constraint (= (f #xeef387a6d016322e) #xeef387a6d016322f))
(constraint (= (f #xaca178906faa80f6) #xaca178906faa80f7))
(constraint (= (f #x05fd7e77d2a437d8) #x05fd7e77d2a437d8))
(constraint (= (f #x8c124c10d13e011c) #x8c124c10d13e011c))
(constraint (= (f #x56e8b74065c1d240) #x56e8b74065c1d240))
(constraint (= (f #x18630157caf81d0a) #x18630157caf81d0b))
(constraint (= (f #x4f64476ab0ca6d40) #x4f64476ab0ca6d40))
(constraint (= (f #x22fef4815cc938a6) #x22fef4815cc938a6))
(constraint (= (f #xcbcc5d2e255d9642) #xcbcc5d2e255d9642))
(constraint (= (f #xe8c3dcbcc961e614) #xe8c3dcbcc961e615))
(constraint (= (f #x94274a69ae826b30) #x94274a69ae826b31))
(constraint (= (f #xfaba2444ac5dcfbf) #xfaba2444ac5dcfbf))
(constraint (= (f #x8b7837b8378cc47b) #x8b7837b8378cc47b))
(constraint (= (f #x800000000000001d) #x800000000000001d))
(constraint (= (f #x5c83fb6aca0a3378) #x5c83fb6aca0a3378))
(check-synth)
