experiments/eusolverbv/7/DirectTrainGenes/001000010001110101000000001010000111001010000/270_.out
(define-fun f ((x (BitVec 64))) (BitVec 64)
     (if0 (bvor (func25 x x) #x0000000000000001) #x0000000000000001 (if0 (shr1 (func25 x x)) #x0000000000000001 (if0 (func25 #x0000000000000001 (func58 x)) (if0 (func25 #x0000000000000001 x) (if0 (func58 (shr1 x)) (bvor x #x0000000000000001) (if0 (func25 #x0000000000000001 (shr16 x)) (if0 (func25 (shr16 x) (shl1 #x0000000000000001)) (bvor x #x0000000000000001) (if0 (func25 (func58 (func58 #x0000000000000001)) x) (if0 (func25 (func58 (func58 (shl1 #x0000000000000001))) x) x (bvor x #x0000000000000001)) (if0 (func25 (func58 (func58 (shl1 #x0000000000000001))) x) (bvor x #x0000000000000001) x))) (if0 (func25 (func58 (func58 #x0000000000000001)) x) (if0 (func25 (func58 (func58 (shl1 #x0000000000000001))) x) x (bvor x #x0000000000000001)) (if0 (func25 (func58 (func58 (shl1 #x0000000000000001))) x) (bvor x #x0000000000000001) x)))) (if0 (func25 #x0000000000000001 (func35 #x0000000000000001 x)) (if0 (func25 #x0000000000000001 (func34 #x0000000000000000 x)) (if0 (func25 #x0000000000000001 (shr1 (shr16 x))) (bvor x #x0000000000000001) x) x) (if0 (func25 #x0000000000000001 (shr1 (shr16 x))) (if0 (func25 #x0000000000000001 (shr1 x)) x (bvor x #x0000000000000001)) (if0 (func25 #x0000000000000001 (func34 #x0000000000000001 x)) (if0 (func25 #x0000000000000001 (func34 #x0000000000000000 x)) (if0 (func25 #x0000000000000001 (shr16 (shr16 x))) (bvor x #x0000000000000001) x) x) (bvor x #x0000000000000001))))) (if0 (func25 #x0000000000000001 (func35 #x0000000000000001 x)) x (if0 (func25 (shr16 x) (shl1 #x0000000000000001)) (if0 (func25 #x0000000000000001 (func25 x x)) (if0 (func25 (func58 (func58 (shl1 #x0000000000000001))) x) #x0000000000000000 x) #x0000000000000000) x))))))
130.06945021636784
